5 6 80
2 3 3 3 4 56 65 65 72 
6 1 1 1 2 4 1 4 2 4 3 4 4 8 21 21 30 52 59 59 65 65 74 74 80 
8 3 1 3 2 5 1 5 2 5 3 5 4 5 5 1 3 10 19 19 29 32 40 40 48 48 58 58 66 66 74 74 80 
3 2 1 2 2 2 3 42 53 53 64 64 72 
5 3 1 5 1 5 1 4 1 4 1 0 10 10 22 22 32 32 44 44 52 
7 1 1 2 1 2 1 3 3 3 3 1 3 1 3 0 8 8 28 28 42 42 48 48 56 56 60 60 68 
